2023/11/29
gurobi is now 11.0.0
previous version was 10.0.3
solving instance knapsack 200 1 cubic
Set parameter TokenServer to value "licences.gerad.lan"
Set parameter MIPGap to value 1e-06
Set parameter FuncPieceError to value 1e-06
Set parameter Threads to value 1
Set parameter FuncPieces to value -2
Set parameter TimeLimit to value 3600
Gurobi Optimizer version 12.0.0 build v12.0.0rc1 (linux64 - "AlmaLinux 9.6 (Sage Margay)")

CPU model: Intel(R) Xeon(R) Gold 6258R CPU @ 2.70GHz, instruction set [SSE2|AVX|AVX2|AVX512]
Thread count: 56 physical cores, 56 logical processors, using up to 1 threads

Non-default parameters:
TimeLimit  3600
MIPGap  1e-06
Threads  1
FuncPieces  -2
FuncPieceError  1e-06

Optimize a model with 601 rows, 800 columns and 1400 nonzeros
Model fingerprint: 0xe6fbc07c
Model has 200 function constraints treated as nonlinear
  200 POLY
Variable types: 600 continuous, 200 integer (200 binary)
Coefficient statistics:
  Matrix range     [9e-02, 1e+02]
  Objective range  [1e+00, 1e+00]
  Bounds range     [1e+02, 1e+10]
  RHS range        [1e+02, 5e+05]
Warning: Model contains large bounds
         Consider reformulating model or setting NumericFocus parameter
         to avoid numerical issues.
Found heuristic solution: objective 0.0000000
Presolve removed 600 rows and 400 columns
Presolve time: 0.00s
Presolved: 1601 rows, 401 columns, 3400 nonzeros
Presolved model has 200 nonlinear constraint(s)

Solving non-convex MINLP

Found heuristic solution: objective -1794.973938
Variable types: 401 continuous, 0 integer (0 binary)
Found heuristic solution: objective -5807.200649

Root relaxation: objective -6.501363e+03, 357 iterations, 0.00 seconds (0.00 work units)

    Nodes    |    Current Node    |     Objective Bounds      |     Work
 Expl Unexpl |  Obj  Depth IntInf | Incumbent    BestBd   Gap | It/Node Time

     0     0 -6501.3632    0   12 -5807.2006 -6501.3632  12.0%     -    0s
H    0     0                    -6490.323720 -6501.3632  0.17%     -    0s
     0     0 -6501.3632    0   12 -6490.3237 -6501.3632  0.17%     -    0s
H    0     0                    -6498.634631 -6501.3632  0.04%     -    0s
H    0     0                    -6499.541664 -6501.3632  0.03%     -    0s
     0     2 -6501.3632    0   12 -6499.5417 -6501.3632  0.03%     -    0s
*   56    12              29    -6500.918634 -6500.9866  0.00%  12.4    0s
*   58    10              30    -6500.918639 -6500.9866  0.00%  13.5    0s

Explored 304 nodes (2947 simplex iterations) in 0.40 seconds (0.21 work units)
Thread count was 1 (of 56 available processors)

Solution count 8: -6500.92 -6500.92 -6499.54 ... 0

Optimal solution found (tolerance 1.00e-06)
Best objective -6.500918638951e+03, best bound -6.500922812828e+03, gap 0.0001%

User-callback calls 1074, time in user-callback 0.00 sec
primal_bound = -6500.918638950726, dual_bound = 0.0, gap = 100.0, time = 0.59
